43 7017
17 4167
39 9988
76 6407
82 7257
30 1139
31 6376
75 2148
30 3229
69 3420
67 2574
70 9474
81 6842
69 8373
69 3079
68 5100
57 4651
73 6605
95 3706
33 2069
20 3394
84 8582
69 6181
38 3280
37 2887
15 8436
61 3650
40 4815
24 7048
22 4735
